(set-logic ALL)
(declare-fun i1 () Int)
(declare-fun it379 () Int)
(declare-fun it380 () Int)
(declare-fun it15 () Int)
(declare-fun it14 () Int)
(declare-fun it381 () Int)
(declare-fun it382 () Int)
(declare-fun it13 () Int)
(declare-fun bt437 () Bool)
(declare-fun bt438 () Bool)
(declare-fun bt439 () Bool)
(declare-fun bt440 () Bool)
(declare-fun it16 () Int)
(declare-fun it17 () Int)
(declare-fun it18 () Int)
(declare-fun bt25 () Bool)
(declare-fun bt28 () Bool)
(declare-fun bt26 () Bool)
(declare-fun bt27 () Bool)
(declare-fun it386 () Int)
(declare-fun it387 () Int)
(declare-fun it388 () Int)
(declare-fun it389 () Int)
(declare-fun bt441 () Bool)
(declare-fun bt442 () Bool)
(declare-fun bt443 () Bool)
(declare-fun bt444 () Bool)
(declare-fun it391 () Int)
(declare-fun it390 () Int)
(declare-fun bt448 () Bool)
(declare-fun bt447 () Bool)
(declare-fun it392 () Int)
(declare-fun bt446 () Bool)
(declare-fun bt445 () Bool)
(declare-fun it536 () Int)
(declare-fun it537 () Int)
(declare-fun it538 () Int)
(declare-fun it539 () Int)
(declare-fun bt609 () Bool)
(declare-fun bt610 () Bool)
(declare-fun bt611 () Bool)
(declare-fun bt612 () Bool)
(declare-fun it541 () Int)
(declare-fun bt615 () Bool)
(declare-fun it540 () Int)
(declare-fun bt614 () Bool)
(declare-fun it542 () Int)
(declare-fun bt613 () Bool)
(declare-fun bt616 () Bool)
(declare-fun it544 () Int)
(declare-fun it545 () Int)
(declare-fun it546 () Int)
(declare-fun it547 () Int)
(declare-fun bt617 () Bool)
(declare-fun bt618 () Bool)
(declare-fun bt619 () Bool)
(declare-fun bt620 () Bool)
(declare-fun bt624 () Bool)
(declare-fun bt621 () Bool)
(declare-fun bt622 () Bool)
(declare-fun it549 () Int)
(declare-fun it550 () Int)
(declare-fun it548 () Int)
(declare-fun bt623 () Bool)
(declare-fun it551 () Int)
(declare-fun it552 () Int)
(declare-fun it553 () Int)
(declare-fun it554 () Int)
(declare-fun bt625 () Bool)
(declare-fun bt626 () Bool)
(declare-fun bt627 () Bool)
(declare-fun bt628 () Bool)
(declare-fun it155 () Int)
(assert (= (+ i1 (- 1)) 0))
(assert (= (+ it379 (- 2)) 0))
(assert (= (+ (* it15 (- 1)) it380) 0))
(assert (= (+ it381 (* it14 (- 1))) 0))
(assert (= (+ (* it13 (- 1)) it382) 0))
(assert (or (and false bt437) (not bt437)))
(assert (or bt438 (and false (not bt438))))
(assert (or (not bt439) (and false bt439)))
(assert (or (not bt440) (and false bt440)))
(assert (and bt27
     (not bt26)
     (not bt28)
     (not bt25)
     (= (+ it18 (- 1)) 0)
     (= (+ it379 (- 2)) 0)
     (not bt439)
     (= (+ it381 (* it17 (- 1))) 0)
     (not bt437)
     (= (+ (* it16 (- 1)) it382) 0)
     bt438
     (not bt440)))
(assert (= (+ it386 (- 2)) 0))
(assert (= (+ it387 (* it18 (- 1))) 0))
(assert (= (+ (* it17 (- 1)) it388) 0))
(assert (= (+ (* it16 (- 1)) it389) 0))
(assert (or (and bt27 bt441) (and (not bt27) (not bt441))))
(assert (or (and bt28 bt442) (and (not bt28) (not bt442))))
(assert (or (and bt26 bt443) (and (not bt26) (not bt443))))
(assert (or (and bt25 bt444) (and (not bt25) (not bt444))))
(assert (and bt441
     bt445
     bt446
     (not bt442)
     (not bt444)
     (not bt443)
     (= (+ (* it392 (- 1)) it389) 0)
     (= (+ it386 (- 2)) 0)
     (not bt447)
     (> (+ (* it387 (- 1)) it389) 0)
     (not bt448)
     (= (+ (* it390 (- 1)) it387) 0)
     (= (+ (* it391 (- 1)) it388) 0)))
(assert (= (+ it536 (- 2)) 0))
(assert (= (+ (* it390 (- 1)) it537) 0))
(assert (= (+ (* it391 (- 1)) it538) 0))
(assert (= (+ it539 (* it392 (- 1))) 0))
(assert (or (and bt609 bt446) (and (not bt609) (not bt446))))
(assert (or (and bt445 bt610) (and (not bt610) (not bt445))))
(assert (or (and bt447 bt611) (and (not bt611) (not bt447))))
(assert (or (and bt448 bt612) (and (not bt612) (not bt448))))
(assert (and bt609
     (not bt612)
     (= (+ it536 (- 2)) 0)
     bt610
     (not bt616)
     (> it538 0)
     (not bt613)
     (= (+ it539 (* it542 (- 1))) 0)
     (not bt614)
     (= (+ (* it540 (- 1)) it537) 0)
     bt615
     (not bt611)
     (= (+ it538 (* it541 (- 1))) 0)))
(assert (= (+ it544 (- 2)) 0))
(assert (= (+ it545 (* it540 (- 1))) 0))
(assert (= (+ it546 (* it541 (- 1))) 0))
(assert (= (+ (* it542 (- 1)) it547) 0))
(assert (or (and (not bt614) (not bt617)) (and bt617 bt614)))
(assert (or (and (not bt618) (not bt613)) (and bt618 bt613)))
(assert (or (and (not bt619) (not bt615)) (and bt619 bt615)))
(assert (or (and (not bt620) (not bt616)) (and bt620 bt616)))
(assert (and (not bt618)
     bt623
     (not bt617)
     (= (+ (* it548 (- 1)) (* it545 2)) 0)
     (= (+ (* it550 (- 1)) it547) 0)
     bt619
     (= (+ (* it549 (- 1)) it546) 0)
     (not bt622)
     bt621
     (not bt624)
     (= (+ it544 (- 2)) 0)))
(assert (= (+ it551 (- 2)) 0))
(assert (= (+ (* it548 (- 1)) it552) 0))
(assert (= (+ (* it549 (- 1)) it553) 0))
(assert (= (+ (* it550 (- 1)) it554) 0))
(assert (or (and (not bt625) (not bt622)) (and bt625 bt622)))
(assert (or (and bt621 bt626) (and (not bt626) (not bt621))))
(assert (or (and bt623 bt627) (and (not bt623) (not bt627))))
(assert (or (and bt628 bt624) (and (not bt624) (not bt628))))
(assert (let ((a!1 (+ (* (+ 0 it552) (exp 2 (+ it155 (- 1))) (+ 0 (- 1)))
              (+ 0 it554))))
  (and (> a!1 (+ 0 0))
       (> it553 0)
       (not bt626)
       bt625
       (>= (+ it551 (- 2)) 0)
       (not bt627)
       (not bt628)
       (>= (+ it155 (- 1)) 0)
       (>= (+ (* it551 (- 1)) 2) 0)
       (> (+ (* it552 (- 1)) it554) 0))))
(check-sat)
